
Log started (V12.10.0.0) Fri Apr  2 17:45:06 2021


Problem 'asset.lp' read.
Read time = 0.00 sec. (0.24 ticks)
New value for default parallel thread count: 1
New value for time limit in seconds: 300
Version identifier: 12.10.0.0 | 2019-11-26 | 843d4de
CPXPARAM_Threads                                 1
CPXPARAM_TimeLimit                               300
Found incumbent of value -0.888205 after 0.00 sec. (0.11 ticks)
Tried aggregator 3 times.
MIP Presolve eliminated 635 rows and 379 columns.
MIP Presolve modified 2086 coefficients.
Aggregator did 698 substitutions.
Reduced MIP has 873 rows, 939 columns, and 4178 nonzeros.
Reduced MIP has 825 binaries, 73 generals, 0 SOSs, and 0 indicators.
Presolve time = 0.01 sec. (10.44 ticks)
Probing fixed 193 vars, tightened 21 bounds.
Probing time = 0.01 sec. (3.97 ticks)
Cover probing fixed 0 vars, tightened 98 bounds.
Tried aggregator 1 time.
MIP Presolve eliminated 241 rows and 238 columns.
MIP Presolve modified 186 coefficients.
Reduced MIP has 632 rows, 698 columns, and 2822 nonzeros.
Reduced MIP has 609 binaries, 48 generals, 0 SOSs, and 0 indicators.
Presolve time = 0.00 sec. (2.82 ticks)
Probing time = 0.00 sec. (2.49 ticks)
Tried aggregator 1 time.
Detecting symmetries...
MIP Presolve modified 102 coefficients.
Reduced MIP has 632 rows, 698 columns, and 2822 nonzeros.
Reduced MIP has 609 binaries, 48 generals, 0 SOSs, and 0 indicators.
Presolve time = 0.00 sec. (1.99 ticks)
Probing time = 0.00 sec. (2.48 ticks)
Clique table members: 2074.
MIP emphasis: balance optimality and feasibility.
MIP search method: dynamic search.
Parallel mode: none, using 1 thread.
Root relaxation solution time = 0.01 sec. (7.29 ticks)

        Nodes                                         Cuts/
   Node  Left     Objective  IInf  Best Integer    Best Bound    ItCnt     Gap

*     0+    0                           -0.8882      413.9896              --- 
      0     0      298.2327   150       -0.8882      298.2327      467     --- 
      0     0      291.1644   150       -0.8882     Cuts: 258      753     --- 
      0     0      286.2923   150       -0.8882     Cuts: 258     1022     --- 
      0     0      284.7567   150       -0.8882     Cuts: 210     1253     --- 
      0     0      284.4255   150       -0.8882     Cuts: 177     1373     --- 
      0     0      284.0121   150       -0.8882     Cuts: 110     1475     --- 
Detecting symmetries...
      0     0      283.6733   150       -0.8882     Cuts: 122     1560     --- 
      0     0      283.2960   150       -0.8882     Cuts: 129     1641     --- 
      0     0      283.0706   150       -0.8882      Cuts: 75     1709     --- 
      0     0      283.0085   150       -0.8882      Cuts: 48     1746     --- 
      0     0      282.8893   150       -0.8882      Cuts: 46     1799     --- 
      0     0      282.8132   150       -0.8882     Cuts: 112     1869     --- 
      0     0      282.7078   150       -0.8882      Cuts: 89     1928     --- 
      0     0      282.6542   150       -0.8882      Cuts: 63     2062     --- 
      0     0      282.5727   150       -0.8882      Cuts: 50     2139     --- 
      0     0      282.4338   150       -0.8882     Cuts: 118     2223     --- 
      0     0      282.3700   150       -0.8882      Cuts: 83     2279     --- 
      0     0      282.2820   150       -0.8882     Cuts: 124     2360     --- 
*     0+    0                           19.2093      282.2820              --- 
      0     0      282.2363   150       19.2093      Cuts: 39     2414     --- 
      0     0      282.2039   150       19.2093      Cuts: 20     2453     --- 
*     0+    0                           28.8289      282.2039           878.89%
*     0+    0                           42.9968      282.2039           556.34%
*     0+    0                           51.9465      282.2039           443.26%
*     0+    0                           66.9239      282.2039           321.68%
*     0+    0                           76.2121      282.2039           270.29%
      0     0        cutoff             76.2121      282.2039     2453  270.29%
Detecting symmetries...
      0     2      282.2039   200       76.2121      282.2038     2453  270.29%
Elapsed time = 0.34 sec. (345.01 ticks, tree = 0.01 MB, solutions = 6)
*    40+   40                          184.9363      282.0555            52.51%
*    80+   73                          187.9348      282.0555            50.08%
*    84    74      integral     0      187.9349      282.0555     6169   50.08%
    100    89      276.7317   150      187.9349      281.6875     7794   49.89%
*   184+  159                          193.0765      281.5950            45.85%
    184   161      266.7447   149      193.0765      281.5950    13734   45.85%
    329   299      260.4476   125      193.0765      281.5334    19270   45.81%
*   460+  402                          194.6250      280.9921            44.38%
    485   423      261.9422   139      194.6250      280.9916    25216   44.38%
*   640+  562                          198.5261      280.4224            41.25%
*   640+  562                          198.5287      280.4224            41.25%
*   660+  562                          204.1167      280.4224            37.38%
    670   572      271.4597   152      204.1167      280.1800    29605   37.26%
    776   675      239.6824    80      204.1167      280.1185    34939   37.23%
*   820+  676                          206.2719      280.1185            35.80%
*   829   679      integral     0      206.2720      280.1185    35570   35.80%
    894   738      264.9260   127      206.2720      279.9060    39313   35.70%
   1035   867      207.5095    35      206.2720      279.5321    45158   35.52%

Performing restart 1

Repeating presolve.
Tried aggregator 2 times.
MIP Presolve modified 469 coefficients.
Aggregator did 2 substitutions.
Reduced MIP has 630 rows, 696 columns, and 2465 nonzeros.
Reduced MIP has 607 binaries, 48 generals, 0 SOSs, and 0 indicators.
Presolve time = 0.00 sec. (3.11 ticks)
Tried aggregator 1 time.
Reduced MIP has 630 rows, 696 columns, and 2465 nonzeros.
Reduced MIP has 607 binaries, 48 generals, 0 SOSs, and 0 indicators.
Presolve time = 0.00 sec. (1.90 ticks)
Represolve time = 0.02 sec. (14.80 ticks)
   1089     0      259.1050   178      206.2720     Cuts: 238    49286   25.61%
   1089     0      249.9086   178      206.2720     Cuts: 253    49694   21.15%
   1089     0      245.4431   178      206.2720     Cuts: 188    49833   18.99%
   1089     0      242.6110   178      206.2720     Cuts: 164    49979   17.62%
   1089     0      241.7734   178      206.2720     Cuts: 119    50090   17.21%
   1089     0      241.1898   178      206.2720      Cuts: 74    50259   16.93%
   1089     0      240.9253   178      206.2720      Cuts: 75    50388   16.80%
   1089     0      240.6615   178      206.2720      Cuts: 76    50565   16.67%
   1089     0      239.8680   178      206.2720      Cuts: 54    50762   16.29%
   1089     0      238.1640   178      206.2720     Cuts: 129    50946   15.46%
   1089     0      237.6587   178      206.2720      Cuts: 64    51069   15.22%
   1089     0      237.0866   178      206.2720      Cuts: 73    51171   14.94%
   1089     0      236.7493   178      206.2720      Cuts: 60    51324   14.78%
   1089     0      236.5930   178      206.2720      Cuts: 52    51467   14.70%
   1089     0      236.4939   178      206.2720      Cuts: 58    51567   14.65%
   1089     0      236.4538   178      206.2720      Cuts: 95    51689   14.63%
   1089     0      236.3820   178      206.2720      Cuts: 47    51745   14.60%
   1089     0      236.1643   178      206.2720      Cuts: 40    51850   14.49%
   1089     0      236.0023   178      206.2720      Cuts: 59    51955   14.41%
   1089     0      235.9723   178      206.2720      Cuts: 40    52014   14.40%
   1089     0      235.9157   178      206.2720      Cuts: 30    52119   14.37%
   1089     0      235.8990   178      206.2720      Cuts: 62    52176   14.36%
   1089     0      235.8112   178      206.2720      Cuts: 23    52291   14.32%
   1089     0      235.7600   178      206.2720      Cuts: 68    52496   14.30%
   1089     0      235.7591   178      206.2720      Cuts: 34    52533   14.30%
   1089     0      235.7508   178      206.2720       Cuts: 7    52635   14.29%
   1089     0      235.7496   178      206.2720      Cuts: 44    52690   14.29%
*  1089+    0                          213.5437      235.7496            10.40%
*  1089+    0                          213.5444      235.7496            10.40%
*  1089+    0                          214.0846      235.7496            10.12%
*  1089+    0                          216.4136      235.7496             8.93%
   1089     2      235.7496   151      216.4136      235.7495    52690    8.93%
   1107    20      221.5880    89      216.4136      235.5275    55199    8.83%
Elapsed time = 4.62 sec. (5345.18 ticks, tree = 0.05 MB, solutions = 20)
*  1189+   73                          218.5546      235.2397             7.63%
   1275   129      231.7799   146      218.5546      232.9134    66350    6.57%
   1443   229      225.0391    43      218.5546      230.4303    80005    5.43%
*  1449+  215                          218.5750      230.4303             5.42%
*  1449+  215                          218.5751      230.4303             5.42%
*  1449+  212                          219.1649      230.4303             5.14%
*  1479+  223                          219.8741      230.3940             4.78%
   1582   278      224.5318    61      219.8741      229.8396    91752    4.53%
   1754   357      223.2991   143      219.8741      227.5848   104585    3.51%
*  1879+  391                          219.8749      226.6457             3.08%
*  1885   394      integral     0      219.8755      226.6457   114769    3.08%
   1916   401      222.0061   120      219.8755      226.5406   118119    3.03%
   2100   455      224.8970   121      219.8755      225.5798   132011    2.59%
   2314   517      222.5863    94      219.8755      224.8899   142653    2.28%
*  2407   255      integral     0      222.2048      224.5445   146882    1.05%
   2558   211      222.8619   101      222.2048      223.8547   153137    0.74%

GUB cover cuts applied:  38
Clique cuts applied:  117
Cover cuts applied:  10
Implied bound cuts applied:  34
Flow cuts applied:  10
Mixed integer rounding cuts applied:  81
Zero-half cuts applied:  62
Lift and project cuts applied:  12
Gomory fractional cuts applied:  6

Root node processing (before b&c):
  Real time             =    0.34 sec. (345.43 ticks)
Sequential b&c:
  Real time             =   11.15 sec. (13319.06 ticks)
                          ------------
Total (root+branch&cut) =   11.49 sec. (13664.48 ticks)

Solution pool: 29 solutions saved.

MIP - Integer optimal, tolerance (0.0001/1e-06):  Objective =  2.2220476936e+02
Current MIP best bound =  2.2222515243e+02 (gap = 0.0203831, 0.01%)
Solution time =   11.49 sec.  Iterations = 159622  Nodes = 2800 (23)
Deterministic time = 13664.49 ticks  (1189.42 ticks/sec)


Incumbent solution
Variable Name           Solution Value
F                           245.000000
f1                            0.915231
f2                           21.880000
y99                           1.000000
y191                          1.000000
y115                          1.000000
y30                           1.000000
y48                           1.000000
y213                          1.000000
y15                           1.000000
y261                          1.000000
y90                           1.000000
y102                          1.000000
y116                          1.000000
y199                          1.000000
y130                          1.000000
y240                          1.000000
y92                           1.000000
s2                            6.000000
s13                           6.000000
s20                           6.000000
s28                           6.000000
s32                           6.000000
s45                           6.000000
s59                           6.000000
s95                           6.000000
s97                           6.000000
s99                           6.706810
s100                          6.000000
s101                          6.000000
s125                          6.000000
s141                          6.000000
s152                          6.000000
s174                          6.000000
s184                          6.000000
s191                          6.226308
s115                          6.582164
s91                           6.100000
s256                          6.110000
s143                          6.170000
s46                           6.180000
s30                           6.638741
s237                          6.310000
s48                           6.854391
s245                          6.350000
s210                          6.380000
s213                          7.180200
s220                          6.420000
s15                           6.480000
s234                          6.570000
s261                          7.522688
s90                           6.673333
s102                          7.376445
s218                          6.620000
s82                           6.660000
s103                          6.670000
s112                          6.700000
s116                          7.562072
s199                          7.624191
s134                          6.770000
s130                          7.733333
s216                          6.800000
s146                          6.820000
s240                          7.808537
s178                          6.900000
s118                          6.930000
s9                            6.940000
s92                           7.966494
x150x99x1                     1.000000
x153x213x1                    1.000000
x221x99x1                     1.000000
x1x116x1                      1.000000
x260x48x1                     1.000000
x161x15x1                     1.000000
x161x90x1                     1.000000
x180x191x1                    2.000000
x153x116x2                    1.000000
x106x115x2                    1.000000
x106x90x2                     1.000000
x182x30x2                     1.000000
x203x102x2                    2.000000
x58x15x2                      1.000000
x150x115x3                    1.000000
x221x213x3                    1.000000
x182x30x3                     1.000000
x1x130x3                      1.000000
x260x48x3                     1.000000
x99x0x1                       2.000000
x191x199x1                    2.000000
x115x240x2                    1.000000
x115x240x3                    1.000000
x30x92x2                      1.000000
x30x92x3                      1.000000
x48x0x1                       1.000000
x48x0x3                       1.000000
x213x0x1                      1.000000
x213x0x3                      1.000000
x15x261x1                     1.000000
x15x261x2                     1.000000
x261x0x1                      1.000000
x261x0x2                      1.000000
x90x130x1                     1.000000
x90x0x2                       1.000000
x102x0x2                      2.000000
x116x0x1                      1.000000
x116x0x2                      1.000000
x199x0x1                      2.000000
x130x0x1                      1.000000
x130x0x3                      1.000000
x240x0x2                      1.000000
x240x0x3                      1.000000
x92x0x2                       1.000000
x92x0x3                       1.000000
s150                          5.166009
z150z99z1                     1.000000
z150z115z3                    1.000000
z150z82z3                     1.000000
z150z199z1                    1.000000
z150z178z3                    1.000000
z150z118z1                    1.000000
z150z9z1                      1.000000
s153                          5.658375
z153z213z1                    1.000000
z153z116z2                    1.000000
s221                          5.319040
z221z99z1                     1.000000
z221z213z3                    1.000000
s106                          5.160000
z106z115z2                    1.000000
z106z90z2                     1.000000
z106z102z2                    1.000000
s182                          5.370000
z182z30z2                     1.000000
z182z30z3                     1.000000
s1                            5.893955
z1z116z1                      1.000000
z1z130z3                      1.000000
s203                          5.853436
z203z102z2                    1.000000
s260                          5.670000
z260z48z1                     1.000000
z260z48z3                     1.000000
s58                           4.625860
z58z125z2                     1.000000
z58z46z2                      1.000000
z58z15z2                      1.000000
z58z102z2                     1.000000
z58z218z2                     1.000000
s161                          4.631300
z161z220z1                    1.000000
z161z15z1                     1.000000
z161z90z1                     1.000000
z161z199z1                    1.000000
z161z118z1                    1.000000
z161z9z1                      1.000000
s180                          4.795260
z180z191z1                    1.000000
z180z220z1                    1.000000
z180z199z1                    1.000000
z180z118z1                    1.000000
z180z9z1                      1.000000
z191z199z1                    1.000000
z115z240z2                    1.000000
z115z240z3                    1.000000
z30z92z2                      1.000000
z30z92z3                      1.000000
z15z261z1                     1.000000
z15z261z2                     1.000000
z90z130z1                     1.000000
All other variables in the range 1-2021 are 0.
